(set-logic QF_S)
(declare-fun T_SELECT_19 () Bool)
(declare-fun T_db () Bool)
(declare-fun T_dc () Bool)
(declare-fun I0_325 () Int)
(declare-fun I0_329 () Int)
(declare-fun I1_325 () Int)
(declare-fun I1_329 () Int)
(declare-fun I2_325 () Int)
(declare-fun I2_329 () Int)
(declare-fun PCTEMP_LHS_85 () Int)
(declare-fun T_e0 () Int)
(declare-fun NEW_DGNode_1144 () String)
(declare-fun NEW_DGNode_1145 () String)
(declare-fun NEW_DGNode_601 () String)
(declare-fun NEW_DGNode_602 () String)
(declare-fun NEW_DGNode_994 () String)
(declare-fun NEW_DGNode_995 () String)
(declare-fun PCTEMP_LHS_86 () String)
(declare-fun PCTEMP_LHS_89 () String)
(declare-fun T1_325 () String)
(declare-fun T1_329 () String)
(declare-fun T2_325 () String)
(declare-fun T2_329 () String)
(declare-fun T3_325 () String)
(declare-fun T3_329 () String)
(declare-fun T_df () String)
(assert (= T_df NEW_DGNode_995))
(assert (= NEW_DGNode_995 NEW_DGNode_994))
(assert (= NEW_DGNode_995 NEW_DGNode_601))
(assert (= NEW_DGNode_601 NEW_DGNode_602))
(assert (= NEW_DGNode_601 (str.++ T1_325 T2_325)))
(assert (= T2_325 (str.++ PCTEMP_LHS_86 T3_325)))
(assert (= NEW_DGNode_602 (str.++ T1_329 T2_329)))
(assert (= T2_329 (str.++ PCTEMP_LHS_89 T3_329)))
(assert (= PCTEMP_LHS_89 NEW_DGNode_1145))
(assert (= NEW_DGNode_1145 NEW_DGNode_1144))
(assert (not (str.in.re NEW_DGNode_1145 (str.to.re "+"))))
(assert (not (str.in.re NEW_DGNode_1144 (str.to.re "%"))))
(assert (not (str.in.re NEW_DGNode_994 (str.to.re "&"))))
(assert (= T_SELECT_19 (not (= PCTEMP_LHS_85 (- 1)))))
(assert T_dc)
(assert (= T_dc (not T_db)))
(assert (= T_db (= PCTEMP_LHS_85 (- 1))))
(assert (= I0_325 (- PCTEMP_LHS_85 0)))
(assert (>= PCTEMP_LHS_85 0))
(assert (>= I2_329 T_e0))
(assert (= I2_329 I1_329))
(assert (<= I2_329 I1_329))
(assert (= I0_329 (- I2_329 T_e0)))
(assert (>= T_e0 0))
(assert (= T_e0 (+ PCTEMP_LHS_85 1)))
(assert (<= PCTEMP_LHS_85 I1_325))
(assert (= I2_325 I1_325))
(assert (= I1_325 (str.len T_df))) ; len 0
(assert (= I1_329 (str.len T_df))) ; len 0
(assert (= 0 (str.len T1_325))) ; len 1
(assert (= I0_325 (str.len PCTEMP_LHS_86))) ; len 2
(assert (= T_e0 (str.len T1_329))) ; len 3
(assert (= I0_329 (str.len PCTEMP_LHS_89))) ; len 4
(check-sat)
